c PyNETGEN v1.0.0
c $ pip install pynetgen
c  WARN(pratyai): The net supply was not 0 originally.
c  NETGEN flow network generation algorithm
c  Problem input parameters
c  -------------------------------------
c   Random seed:          24
c   Number of nodes:      11
c   Source nodes:         3
c   Sink nodes:           1
c   Number of arcs:       65
c   Minimum arc cost:     10
c   Maximum arc cost:     99
c   Total supply:         1000
c   Transshipment -
c     Sources:            0
c     Sinks:              0
c   Skeleton arcs -
c     With max cost:      0
c     Capacitated:        100
c   Minimum arc capacity: 100
c   Maximum arc capacity: 1000
c
c  *** Minimum cost flow ***
c
p min 11 65
n 1 -48
n 2 608
n 3 59
n 11 -619
a 1 5 0 286 67
a 1 7 0 518 16
a 1 6 0 201 91
a 5 6 0 286 38
a 5 7 0 756 25
a 5 10 0 724 94
a 5 9 0 213 47
a 5 4 0 797 89
a 5 11 0 729 31
a 5 8 0 123 53
a 6 11 0 286 40
a 6 1 0 286 46
a 6 8 0 171 77
a 6 9 0 831 33
a 6 5 0 139 74
a 6 7 0 631 73
a 2 7 0 608 72
a 2 5 0 988 32
a 2 8 0 810 23
a 2 10 0 779 46
a 2 4 0 115 18
a 2 9 0 362 31
a 2 6 0 387 25
a 7 11 0 608 97
a 7 1 0 608 19
a 7 4 0 281 11
a 7 9 0 902 57
a 7 5 0 251 92
a 7 8 0 847 49
a 7 6 0 474 90
a 3 8 0 100 72
a 3 7 0 551 29
a 3 9 0 715 64
a 3 10 0 385 36
a 3 6 0 947 71
a 3 4 0 887 40
a 3 5 0 572 51
a 4 9 0 100 10
a 4 8 0 156 27
a 4 11 0 913 12
a 4 5 0 980 73
a 4 10 0 120 95
a 4 7 0 979 82
a 4 6 0 828 81
a 8 4 0 100 46
a 8 6 0 140 30
a 8 9 0 738 77
a 8 11 0 108 70
a 8 5 0 281 81
a 8 10 0 740 67
a 8 7 0 151 46
a 9 10 0 100 21
a 9 7 0 756 18
a 9 8 0 883 10
a 9 5 0 866 43
a 9 11 0 586 70
a 9 4 0 141 68
a 9 6 0 347 38
a 10 11 0 100 65
a 10 1 0 100 87
a 10 7 0 409 94
a 10 8 0 551 12
a 10 4 0 170 96
a 10 6 0 674 93
a 10 5 0 835 18
